40 390 
1 2 1
1 3 1
1 7 1
1 8 1
1 10 1
1 12 1
1 13 1
1 14 1
1 16 1
1 17 1
1 18 1
1 20 1
1 22 1
1 23 1
1 25 1
1 26 1
1 28 1
1 32 1
1 33 1
1 36 1
1 39 1
2 9 1
2 11 1
2 14 1
2 15 1
2 17 1
2 21 1
2 22 1
2 24 1
2 26 1
2 27 1
2 29 1
2 30 1
2 33 1
2 35 1
2 38 1
2 40 1
3 6 1
3 7 1
3 9 1
3 12 1
3 13 1
3 14 1
3 15 1
3 16 1
3 17 1
3 19 1
3 20 1
3 23 1
3 25 1
3 27 1
3 28 1
3 30 1
3 33 1
3 34 1
3 36 1
3 37 1
3 38 1
3 39 1
4 5 1
4 6 1
4 8 1
4 9 1
4 12 1
4 13 1
4 18 1
4 19 1
4 20 1
4 21 1
4 22 1
4 23 1
4 25 1
4 26 1
4 31 1
4 32 1
4 33 1
4 34 1
4 35 1
4 37 1
4 39 1
4 40 1
5 7 1
5 8 1
5 10 1
5 11 1
5 13 1
5 15 1
5 17 1
5 18 1
5 20 1
5 21 1
5 22 1
5 26 1
5 27 1
5 28 1
5 29 1
5 30 1
5 35 1
5 37 1
5 39 1
6 11 1
6 12 1
6 13 1
6 16 1
6 17 1
6 18 1
6 21 1
6 22 1
6 24 1
6 27 1
6 30 1
6 31 1
6 35 1
6 36 1
6 40 1
7 8 1
7 9 1
7 11 1
7 12 1
7 13 1
7 15 1
7 19 1
7 21 1
7 25 1
7 28 1
7 30 1
7 32 1
7 35 1
7 40 1
8 10 1
8 11 1
8 12 1
8 13 1
8 16 1
8 17 1
8 18 1
8 20 1
8 21 1
8 22 1
8 23 1
8 25 1
8 28 1
8 30 1
8 32 1
8 33 1
8 34 1
8 35 1
8 36 1
9 11 1
9 12 1
9 15 1
9 16 1
9 17 1
9 21 1
9 26 1
9 31 1
9 32 1
9 33 1
9 36 1
9 38 1
10 12 1
10 13 1
10 19 1
10 20 1
10 21 1
10 25 1
10 27 1
10 29 1
10 31 1
10 35 1
10 36 1
10 37 1
10 38 1
10 39 1
10 40 1
11 12 1
11 19 1
11 23 1
11 26 1
11 27 1
11 30 1
11 31 1
11 32 1
11 33 1
11 36 1
11 37 1
11 39 1
11 40 1
12 14 1
12 15 1
12 17 1
12 20 1
12 21 1
12 23 1
12 25 1
12 26 1
12 27 1
12 29 1
12 37 1
12 38 1
12 39 1
13 15 1
13 16 1
13 18 1
13 21 1
13 22 1
13 23 1
13 25 1
13 26 1
13 28 1
13 29 1
13 30 1
13 31 1
13 32 1
13 35 1
13 36 1
13 38 1
13 40 1
14 15 1
14 17 1
14 18 1
14 20 1
14 22 1
14 29 1
14 30 1
14 31 1
14 36 1
14 37 1
14 38 1
14 39 1
14 40 1
15 16 1
15 20 1
15 21 1
15 23 1
15 24 1
15 25 1
15 26 1
15 27 1
15 30 1
15 33 1
15 36 1
15 37 1
15 38 1
16 17 1
16 19 1
16 21 1
16 22 1
16 23 1
16 25 1
16 27 1
16 28 1
16 29 1
16 30 1
16 31 1
16 32 1
16 33 1
16 34 1
16 36 1
16 37 1
16 40 1
17 18 1
17 20 1
17 23 1
17 26 1
17 27 1
17 28 1
17 29 1
17 32 1
17 33 1
17 37 1
17 38 1
18 19 1
18 21 1
18 22 1
18 27 1
18 30 1
18 31 1
18 32 1
18 34 1
18 35 1
18 36 1
18 39 1
18 40 1
19 20 1
19 24 1
19 27 1
19 28 1
19 29 1
19 30 1
19 32 1
19 33 1
19 34 1
19 37 1
19 40 1
20 21 1
20 23 1
20 25 1
20 26 1
20 29 1
20 31 1
20 33 1
20 34 1
20 35 1
20 37 1
20 38 1
20 40 1
21 23 1
21 28 1
21 30 1
21 31 1
21 32 1
21 33 1
21 34 1
21 36 1
21 38 1
22 27 1
22 29 1
22 33 1
22 37 1
22 38 1
23 24 1
23 25 1
23 26 1
23 27 1
23 28 1
23 29 1
23 30 1
23 32 1
23 35 1
24 29 1
24 32 1
24 34 1
24 37 1
25 26 1
25 27 1
25 28 1
25 31 1
25 33 1
25 35 1
25 36 1
25 38 1
26 29 1
26 32 1
26 34 1
26 35 1
26 36 1
26 37 1
26 38 1
26 40 1
27 28 1
27 33 1
27 34 1
27 37 1
27 39 1
28 36 1
28 37 1
28 38 1
29 30 1
29 31 1
29 32 1
29 33 1
29 35 1
30 35 1
30 36 1
30 38 1
31 33 1
31 35 1
31 37 1
31 38 1
31 39 1
31 40 1
32 35 1
32 36 1
32 37 1
32 38 1
33 35 1
33 37 1
33 40 1
34 35 1
34 36 1
34 38 1
34 39 1
35 37 1
35 38 1
36 37 1
36 39 1
37 38 1
38 39 1
39 40 1
